(set-info :smt-lib-version 2.6)
(set-logic LIA)
(set-info
  :source |
 Generated by PSyCO 0.1
 More info in N. P. Lopes and J. Monteiro. Weakest Precondition Synthesis for
 Compiler Optimizations, VMCAI'14.
|)
(set-info :category "industrial")
(set-info :status sat)
(declare-fun R_E1_V4 () Bool)
(declare-fun W_S1_V4 () Bool)
(declare-fun R_E1_V5 () Bool)
(declare-fun W_S1_V5 () Bool)
(declare-fun W_S2_V5 () Bool)
(declare-fun W_S2_V2 () Bool)
(declare-fun W_S2_V3 () Bool)
(declare-fun W_S2_V1 () Bool)
(declare-fun R_S2_V4 () Bool)
(declare-fun R_S2_V5 () Bool)
(declare-fun R_S2_V2 () Bool)
(declare-fun R_S2_V3 () Bool)
(declare-fun R_S2_V1 () Bool)
(declare-fun R_S1_V4 () Bool)
(declare-fun R_S1_V5 () Bool)
(declare-fun R_S1_V2 () Bool)
(declare-fun R_S1_V3 () Bool)
(declare-fun R_S1_V1 () Bool)
(declare-fun R_E1_V2 () Bool)
(declare-fun DISJ_W_S2_R_E1 () Bool)
(declare-fun DISJ_W_S2_R_S2 () Bool)
(declare-fun DISJ_W_S2_R_S1 () Bool)
(declare-fun DISJ_W_S1_W_S2 () Bool)
(declare-fun R_E1_V3 () Bool)
(declare-fun DISJ_W_S1_R_S2 () Bool)
(declare-fun DISJ_W_S1_R_S1 () Bool)
(declare-fun W_S2_V4 () Bool)
(declare-fun W_S1_V3 () Bool)
(declare-fun W_S1_V2 () Bool)
(declare-fun W_S1_V1 () Bool)
(declare-fun R_E1_V1 () Bool)
(declare-fun DISJ_W_S1_R_E1 () Bool)
(assert
 (let
 (($x3462
   (forall
    ((V3_0 Int) (V2_0 Int) 
     (V5_0 Int) (V4_0 Int) 
     (MW_S1_V1 Bool) (MW_S1_V3 Bool) 
     (MW_S1_V2 Bool) (MW_S1_V5 Bool) 
     (MW_S1_V4 Bool) (MW_S2_V1 Bool) 
     (MW_S2_V3 Bool) (MW_S2_V2 Bool) 
     (MW_S2_V5 Bool) (MW_S2_V4 Bool) 
     (S1_V1_!2447 Int) (S1_V1_!2457 Int) 
     (S1_V1_!2468 Int) (S2_V5_!2455 Int) 
     (S2_V5_!2465 Int) (S2_V5_!2477 Int) 
     (S2_V5_!2482 Int) (S1_V3_!2448 Int) 
     (S1_V3_!2458 Int) (S1_V3_!2469 Int) 
     (S1_V2_!2449 Int) (S1_V2_!2459 Int) 
     (S1_V2_!2470 Int) (E1_!2446 Int) 
     (E1_!2467 Int) (E1_!2473 Int) 
     (S2_V4_!2456 Int) (S2_V4_!2466 Int) 
     (S2_V4_!2478 Int) (S2_V4_!2483 Int) 
     (S1_V5_!2450 Int) (S1_V5_!2460 Int) 
     (S1_V5_!2471 Int) (S2_V1_!2452 Int) 
     (S2_V1_!2462 Int) (S2_V1_!2474 Int) 
     (S2_V1_!2479 Int) (S1_V4_!2451 Int) 
     (S1_V4_!2461 Int) (S1_V4_!2472 Int) 
     (S2_V2_!2454 Int) (S2_V2_!2464 Int) 
     (S2_V2_!2476 Int) (S2_V2_!2481 Int) 
     (S2_V3_!2453 Int) (S2_V3_!2463 Int) 
     (S2_V3_!2475 Int) (S2_V3_!2480 Int))
    (let
    (($x2590
      (=
      (ite MW_S2_V4 S2_V4_!2466
      (ite MW_S1_V4 S1_V4_!2461
      (ite MW_S2_V4 S2_V4_!2456 (ite MW_S1_V4 S1_V4_!2451 V4_0))))
      (ite MW_S2_V4 S2_V4_!2483 (ite MW_S1_V4 S1_V4_!2472 V4_0)))))
    (let
    (($x3321
      (=
      (ite MW_S2_V5 S2_V5_!2465
      (ite MW_S1_V5 S1_V5_!2460
      (ite MW_S2_V5 S2_V5_!2455 (ite MW_S1_V5 S1_V5_!2450 V5_0))))
      (ite MW_S2_V5 S2_V5_!2482 (ite MW_S1_V5 S1_V5_!2471 V5_0)))))
    (let
    (($x3497
      (=
      (ite MW_S2_V2 S2_V2_!2464
      (ite MW_S1_V2 S1_V2_!2459
      (ite MW_S2_V2 S2_V2_!2454 (ite MW_S1_V2 S1_V2_!2449 V2_0))))
      (ite MW_S2_V2 S2_V2_!2481 (ite MW_S1_V2 S1_V2_!2470 V2_0)))))
    (let
    (($x2653
      (=
      (ite MW_S2_V3 S2_V3_!2463
      (ite MW_S1_V3 S1_V3_!2458
      (ite MW_S2_V3 S2_V3_!2453 (ite MW_S1_V3 S1_V3_!2448 V3_0))))
      (ite MW_S2_V3 S2_V3_!2480 (ite MW_S1_V3 S1_V3_!2469 V3_0)))))
    (let ((?x3583 (ite MW_S1_V1 S1_V1_!2447 E1_!2446)))
    (let ((?x2771 (ite MW_S2_V1 S2_V1_!2452 ?x3583)))
    (let ((?x2861 (+ 1 ?x2771)))
    (let ((?x3185 (ite MW_S1_V1 S1_V1_!2457 ?x2861)))
    (let
    (($x3126
      (= (ite MW_S2_V1 S2_V1_!2462 ?x3185)
      (ite MW_S2_V1 S2_V1_!2479 (+ 1 (ite MW_S2_V1 S2_V1_!2474 E1_!2473))))))
    (let
    (($x2654
      (>=
      (ite MW_S2_V1 S2_V1_!2479 (+ 1 (ite MW_S2_V1 S2_V1_!2474 E1_!2473)))
      (+ (- 1) (ite MW_S2_V2 S2_V2_!2481 (ite MW_S1_V2 S1_V2_!2470 V2_0))))))
    (let ((?x2975 (ite MW_S2_V1 S2_V1_!2474 E1_!2473)))
    (let ((?x3074 (+ 1 ?x2975)))
    (let ((?x2455 (ite MW_S1_V2 S1_V2_!2470 V2_0)))
    (let ((?x2818 (ite MW_S2_V2 S2_V2_!2476 ?x2455)))
    (let
    ((?x3376
      (+ (- 1)
      (ite MW_S2_V2 S2_V2_!2464
      (ite MW_S1_V2 S1_V2_!2459
      (ite MW_S2_V2 S2_V2_!2454 (ite MW_S1_V2 S1_V2_!2449 V2_0)))))))
    (let
    (($x2492
      (and (not (<= V2_0 E1_!2446))
      (not
      (<= (ite MW_S2_V2 S2_V2_!2454 (ite MW_S1_V2 S1_V2_!2449 V2_0)) ?x2861))
      (>= (ite MW_S2_V1 S2_V1_!2462 ?x3185) ?x3376) 
      (not (<= V2_0 E1_!2467))
      (>= (ite MW_S1_V1 S1_V1_!2468 E1_!2467) (+ (- 1) ?x2455))
      (not (<= ?x2455 E1_!2473)) 
      (not (<= ?x2818 ?x3074)) $x2654)))
    (let (($x223 (not R_S2_V4)))
    (let
    (($x2709
      (or $x223
      (= (ite MW_S1_V4 S1_V4_!2472 V4_0)
      (ite MW_S2_V4 S2_V4_!2478 (ite MW_S1_V4 S1_V4_!2472 V4_0))))))
    (let (($x221 (not R_S2_V5)))
    (let
    (($x3071
      (or $x221
      (= (ite MW_S1_V5 S1_V5_!2471 V5_0)
      (ite MW_S2_V5 S2_V5_!2477 (ite MW_S1_V5 S1_V5_!2471 V5_0))))))
    (let (($x217 (not R_S2_V3)))
    (let
    (($x2645
      (or $x217
      (= (ite MW_S1_V3 S1_V3_!2469 V3_0)
      (ite MW_S2_V3 S2_V3_!2475 (ite MW_S1_V3 S1_V3_!2469 V3_0))))))
    (let
    (($x2545
      (and (or (not R_S2_V1) (= E1_!2473 ?x3074)) $x2645
      (or (not R_S2_V2) (= ?x2455 ?x2818)) $x3071 $x2709)))
    (let (($x2987 (not $x2545)))
    (let ((?x2991 (ite MW_S1_V4 S1_V4_!2451 V4_0)))
    (let ((?x2923 (ite MW_S2_V4 S2_V4_!2456 ?x2991)))
    (let ((?x3255 (ite MW_S1_V4 S1_V4_!2461 ?x2923)))
    (let ((?x3637 (ite MW_S1_V4 S1_V4_!2472 V4_0)))
    (let ((?x3355 (ite MW_S1_V5 S1_V5_!2450 V5_0)))
    (let ((?x2614 (ite MW_S2_V5 S2_V5_!2455 ?x3355)))
    (let ((?x3545 (ite MW_S1_V5 S1_V5_!2460 ?x2614)))
    (let ((?x3303 (ite MW_S1_V5 S1_V5_!2471 V5_0)))
    (let (($x219 (not R_S2_V2)))
    (let
    (($x3307
      (or $x219
      (= ?x2455
      (ite MW_S1_V2 S1_V2_!2459
      (ite MW_S2_V2 S2_V2_!2454 (ite MW_S1_V2 S1_V2_!2449 V2_0)))))))
    (let ((?x3384 (ite MW_S1_V3 S1_V3_!2448 V3_0)))
    (let ((?x2870 (ite MW_S2_V3 S2_V3_!2453 ?x3384)))
    (let ((?x3272 (ite MW_S1_V3 S1_V3_!2458 ?x2870)))
    (let ((?x2679 (ite MW_S1_V3 S1_V3_!2469 V3_0)))
    (let
    (($x2731
      (and (or (not R_S2_V1) (= E1_!2473 ?x3185))
      (or $x217 (= ?x2679 ?x3272)) $x3307 
      (or $x221 (= ?x3303 ?x3545)) 
      (or $x223 (= ?x3637 ?x3255)))))
    (let
    (($x3206
      (and (or (not R_S2_V1) (= E1_!2473 ?x3583))
      (or $x217 (= ?x2679 ?x3384))
      (or $x219 (= ?x2455 (ite MW_S1_V2 S1_V2_!2449 V2_0)))
      (or $x221 (= ?x3303 ?x3355)) 
      (or $x223 (= ?x3637 ?x2991)))))
    (let (($x2742 (not $x3206)))
    (let
    (($x2520
      (or $x219
      (=
      (ite MW_S1_V2 S1_V2_!2459
      (ite MW_S2_V2 S2_V2_!2454 (ite MW_S1_V2 S1_V2_!2449 V2_0))) ?x2818))))
    (let
    (($x3115
      (and (or (not R_S2_V1) (= ?x3185 ?x3074))
      (or $x217 (= ?x3272 (ite MW_S2_V3 S2_V3_!2475 ?x2679))) $x2520
      (or $x221 (= ?x3545 (ite MW_S2_V5 S2_V5_!2477 ?x3303)))
      (or $x223 (= ?x3255 (ite MW_S2_V4 S2_V4_!2478 ?x3637))))))
    (let (($x3081 (not $x3115)))
    (let ((?x2904 (ite MW_S1_V2 S1_V2_!2449 V2_0)))
    (let ((?x2846 (ite MW_S2_V2 S2_V2_!2454 ?x2904)))
    (let ((?x3414 (ite MW_S1_V2 S1_V2_!2459 ?x2846)))
    (let
    (($x2980
      (and (or (not R_S2_V1) (= ?x3185 ?x3583)) 
      (or $x217 (= ?x3272 ?x3384)) 
      (or $x219 (= ?x3414 ?x2904)) 
      (or $x221 (= ?x3545 ?x3355)) 
      (or $x223 (= ?x3255 ?x2991)))))
    (let (($x3562 (not $x2980)))
    (let
    (($x4211
      (and (or (not R_S2_V1) (= ?x3583 ?x3074))
      (or $x217 (= ?x3384 (ite MW_S2_V3 S2_V3_!2475 ?x2679)))
      (or $x219 (= ?x2904 ?x2818))
      (or $x221 (= ?x3355 (ite MW_S2_V5 S2_V5_!2477 ?x3303)))
      (or $x223 (= ?x2991 (ite MW_S2_V4 S2_V4_!2478 ?x3637))))))
    (let (($x3291 (not $x4211)))
    (let
    (($x3842
      (and (or (not R_S2_V1) (= ?x2975 (+ (- 1) E1_!2473)))
      (or $x217 (= (ite MW_S2_V3 S2_V3_!2475 ?x2679) ?x2679))
      (or $x219 (= ?x2818 ?x2455))
      (or $x221 (= (ite MW_S2_V5 S2_V5_!2477 ?x3303) ?x3303))
      (or $x223 (= (ite MW_S2_V4 S2_V4_!2478 ?x3637) ?x3637)))))
    (let
    (($x2509
      (and (or (not R_S2_V1) (= ?x2975 (+ (- 1) ?x3185)))
      (or $x217 (= (ite MW_S2_V3 S2_V3_!2475 ?x2679) ?x3272))
      (or $x219 (= ?x2818 ?x3414))
      (or $x221 (= (ite MW_S2_V5 S2_V5_!2477 ?x3303) ?x3545))
      (or $x223 (= (ite MW_S2_V4 S2_V4_!2478 ?x3637) ?x3255)))))
    (let
    (($x2551
      (and (or (not R_S2_V1) (= ?x3185 E1_!2473))
      (or $x217 (= ?x3272 ?x2679)) 
      (or $x219 (= ?x3414 ?x2455)) 
      (or $x221 (= ?x3545 ?x3303)) 
      (or $x223 (= ?x3255 ?x3637)))))
    (let (($x3555 (not $x2551)))
    (let
    (($x3534
      (and (or (not R_S2_V1) (= ?x3583 E1_!2473))
      (or $x217 (= ?x3384 ?x2679)) 
      (or $x219 (= ?x2904 ?x2455)) 
      (or $x221 (= ?x3355 ?x3303)) 
      (or $x223 (= ?x2991 ?x3637)))))
    (let
    (($x2868
      (and (or (not R_S2_V1) (= ?x3583 ?x3185)) 
      (or $x217 (= ?x3384 ?x3272)) 
      (or $x219 (= ?x2904 ?x3414)) 
      (or $x221 (= ?x3355 ?x3545)) 
      (or $x223 (= ?x2991 ?x3255)))))
    (let
    (($x3874
      (and (or (not R_S1_V1) (= E1_!2467 ?x2861))
      (or (not R_S1_V3) (= V3_0 ?x2870)) 
      (or (not R_S1_V2) (= V2_0 ?x2846)) 
      (or (not R_S1_V5) (= V5_0 ?x2614)) 
      (or (not R_S1_V4) (= V4_0 ?x2923)))))
    (let (($x3803 (not $x3874)))
    (let
    (($x3911
      (and (or (not R_S1_V1) (= E1_!2446 ?x2861))
      (or (not R_S1_V3) (= V3_0 ?x2870)) 
      (or (not R_S1_V2) (= V2_0 ?x2846)) 
      (or (not R_S1_V5) (= V5_0 ?x2614)) 
      (or (not R_S1_V4) (= V4_0 ?x2923)))))
    (let
    (($x3974
      (and (or (not R_S2_V1) (= ?x2975 (+ (- 1) ?x3583)))
      (or $x217 (= (ite MW_S2_V3 S2_V3_!2475 ?x2679) ?x3384))
      (or $x219 (= ?x2818 ?x2904))
      (or $x221 (= (ite MW_S2_V5 S2_V5_!2477 ?x3303) ?x3355))
      (or $x223 (= (ite MW_S2_V4 S2_V4_!2478 ?x3637) ?x2991)))))
    (let
    (($x2766
      (and (or (not R_E1_V2) (= V2_0 ?x2455))
      (or (not R_E1_V5) (= V5_0 ?x3303)) 
      (or (not R_E1_V4) (= V4_0 ?x3637)))))
    (let
    (($x4166
      (and (or (not R_S1_V1) (= ?x2771 (+ (- 1) E1_!2467)))
      (or (not R_S1_V3) (= ?x2870 V3_0)) 
      (or (not R_S1_V2) (= ?x2846 V2_0)) 
      (or (not R_S1_V5) (= ?x2614 V5_0)) 
      (or (not R_S1_V4) (= ?x2923 V4_0)))))
    (let
    (($x3877
      (and (or (not R_S1_V1) (= ?x2771 (+ (- 1) E1_!2446)))
      (or (not R_S1_V3) (= ?x2870 V3_0)) 
      (or (not R_S1_V2) (= ?x2846 V2_0)) 
      (or (not R_S1_V5) (= ?x2614 V5_0)) 
      (or (not R_S1_V4) (= ?x2923 V4_0)))))
    (let (($x3922 (not $x3877)))
    (let
    (($x2690
      (and (or $x3922 (= S1_V1_!2457 S1_V1_!2447))
      (or (not (or (not R_S1_V1) (= E1_!2467 E1_!2446)))
      (= S1_V1_!2468 S1_V1_!2447)) 
      (or $x3803 (= S1_V1_!2468 S1_V1_!2457))
      (or (not $x2868) (= S2_V5_!2455 S2_V5_!2465))
      (or (not $x3534) (= S2_V5_!2455 S2_V5_!2477))
      (or $x3291 (= S2_V5_!2455 S2_V5_!2482))
      (or $x3555 (= S2_V5_!2465 S2_V5_!2477))
      (or $x3081 (= S2_V5_!2465 S2_V5_!2482))
      (or (not $x3842) (= S2_V5_!2482 S2_V5_!2477))
      (or $x3922 (= S1_V3_!2458 S1_V3_!2448))
      (or (not $x4166) (= S1_V3_!2458 S1_V3_!2469))
      (or (not (or (not R_S1_V1) (= E1_!2467 E1_!2446)))
      (= S1_V3_!2469 S1_V3_!2448)) 
      (or $x3922 (= S1_V2_!2459 S1_V2_!2449))
      (or (not $x4166) (= S1_V2_!2459 S1_V2_!2470))
      (or (not (or (not R_S1_V1) (= E1_!2467 E1_!2446)))
      (= S1_V2_!2470 S1_V2_!2449)) 
      (or (not $x2766) (= E1_!2446 E1_!2473)) 
      (= E1_!2467 E1_!2446) 
      (or (not $x2766) (= E1_!2467 E1_!2473))
      (or $x3562 (= S2_V4_!2466 S2_V4_!2456))
      (or $x3555 (= S2_V4_!2466 S2_V4_!2478))
      (or $x3081 (= S2_V4_!2466 S2_V4_!2483))
      (or $x2742 (= S2_V4_!2478 S2_V4_!2456))
      (or $x2987 (= S2_V4_!2478 S2_V4_!2483))
      (or (not $x3974) (= S2_V4_!2483 S2_V4_!2456))
      (or (not $x3911) (= S1_V5_!2450 S1_V5_!2460))
      (or (not (or (not R_S1_V1) (= E1_!2467 E1_!2446)))
      (= S1_V5_!2471 S1_V5_!2450)) 
      (or $x3803 (= S1_V5_!2471 S1_V5_!2460))
      (or $x3291 (= S2_V1_!2452 S2_V1_!2479))
      (or $x3562 (= S2_V1_!2462 S2_V1_!2452))
      (or $x3081 (= S2_V1_!2462 S2_V1_!2479))
      (or $x2742 (= S2_V1_!2474 S2_V1_!2452))
      (or (not $x2731) (= S2_V1_!2474 S2_V1_!2462))
      (or $x2987 (= S2_V1_!2474 S2_V1_!2479))
      (or (not $x3911) (= S1_V4_!2451 S1_V4_!2461))
      (or (not (or (not R_S1_V1) (= E1_!2446 E1_!2467)))
      (= S1_V4_!2451 S1_V4_!2472)) 
      (or $x3803 (= S1_V4_!2472 S1_V4_!2461))
      (or (not $x2868) (= S2_V2_!2454 S2_V2_!2464))
      (or (not $x3534) (= S2_V2_!2454 S2_V2_!2476))
      (or $x3291 (= S2_V2_!2454 S2_V2_!2481))
      (or $x3555 (= S2_V2_!2464 S2_V2_!2476))
      (or (not $x2509) (= S2_V2_!2481 S2_V2_!2464))
      (or (not $x3842) (= S2_V2_!2481 S2_V2_!2476))
      (or $x3291 (= S2_V3_!2453 S2_V3_!2480))
      (or $x3562 (= S2_V3_!2463 S2_V3_!2453))
      (or $x3081 (= S2_V3_!2463 S2_V3_!2480))
      (or $x2742 (= S2_V3_!2475 S2_V3_!2453))
      (or (not $x2731) (= S2_V3_!2475 S2_V3_!2463))
      (or $x2987 (= S2_V3_!2475 S2_V3_!2480)) 
      (not MW_S1_V1) (not MW_S1_V2) 
      (or (not MW_S1_V5) W_S1_V5) 
      (or (not MW_S1_V4) W_S1_V4) 
      (or (not MW_S2_V1) W_S2_V1) 
      (or (not MW_S2_V3) W_S2_V3) 
      (or (not MW_S2_V2) W_S2_V2) 
      (or (not MW_S2_V5) W_S2_V5))))
    (or (not $x2690) (not $x2492) (and $x3126 $x2653 $x3497 $x3321 $x2590)))))))))))))))))))))))))))))))))))))))))))))))))))))))))))))))))))))))
 (let
 (($x2925 (not (or (and W_S2_V2 R_E1_V2) (and W_S2_V5 R_E1_V5) R_E1_V4))))
 (let
 (($x113
   (or (and W_S2_V1 R_S2_V1) 
   (and W_S2_V3 R_S2_V3) (and W_S2_V2 R_S2_V2) 
   (and W_S2_V5 R_S2_V5) R_S2_V4)))
 (let (($x115 (= DISJ_W_S2_R_S2 (not $x113))))
 (let
 (($x110
   (or (and W_S2_V1 R_S1_V1) 
   (and W_S2_V3 R_S1_V3) (and W_S2_V2 R_S1_V2) 
   (and W_S2_V5 R_S1_V5) R_S1_V4)))
 (let (($x112 (= DISJ_W_S2_R_S1 (not $x110))))
 (let
 (($x3189
   (= DISJ_W_S1_W_S2 (not (or W_S2_V3 (and W_S1_V5 W_S2_V5) W_S1_V4)))))
 (let (($x152 (not R_E1_V3)))
 (let
 (($x2996 (not (or R_S2_V3 (and W_S1_V5 R_S2_V5) (and W_S1_V4 R_S2_V4)))))
 (let
 (($x3405 (not (or R_S1_V3 (and W_S1_V5 R_S1_V5) (and W_S1_V4 R_S1_V4)))))
 (let
 (($x3621
   (or (and (not W_S2_V2) DISJ_W_S2_R_S1 DISJ_W_S1_R_S1)
   (and (not W_S2_V1) (not W_S2_V2)) 
   (and (not R_S1_V1) DISJ_W_S1_R_S1))))
 (let (($x2209 (not W_S1_V2)))
 (let (($x2206 (not W_S1_V1)))
 (let (($x150 (not R_E1_V1)))
 (and DISJ_W_S1_R_E1 $x150 $x2206 $x2209 $x3621 W_S1_V3 W_S2_V4
 (= DISJ_W_S1_R_S1 $x3405) 
 (= DISJ_W_S1_R_S2 $x2996) $x152 $x3189 $x112 $x115 
 (= DISJ_W_S2_R_E1 $x2925) $x3462 
 (not (and W_S1_V5 R_E1_V5)) 
 (not (and W_S1_V4 R_E1_V4))))))))))))))))))
(check-sat)
(exit)

